param L := 833;

set MODULI := M1 M2 M3 M4 M5 M6 M7 M8 ;

param d :=
  M1 2
  M2 8
  M3 5
  M4 1
  M5 7
  M6 1
  M7 3
  M8 10
;

param l :=
  M1 10
  M2 35
  M3 25
  M4 11
  M5 49
  M6 11
  M7 26
  M8 16
;
